500
300 300
1 210 807
2 210 473
3 210 836
4 209 656
5 209 476
6 208 308
7 208 217
8 207 872
9 207 470
10 207 911
11 207 131
12 207 693
13 207 20
14 206 605
15 206 397
16 206 33
17 205 251
18 205 614
19 205 605
20 204 347
21 204 868
22 204 676
23 204 299
24 203 285
25 203 470
26 202 355
27 202 959
28 202 470
29 202 672
30 201 427
31 201 579
32 201 746
33 201 67
34 200 481
35 200 16
36 199 312
37 199 756
38 198 634
39 198 841
40 198 682
41 198 340
42 198 147
43 198 494
44 198 814
45 198 629
46 198 815
47 197 707
48 197 285
49 197 133
50 197 525
51 196 909
52 195 376
53 195 577
54 195 457
55 194 570
56 194 492
57 194 24
58 193 834
59 193 10
60 193 633
61 193 711
62 193 290
63 193 637
64 192 141
65 192 224
66 191 1
67 191 613
68 191 157
69 191 831
70 190 375
71 190 90
72 190 850
73 190 378
74 190 636
75 190 288
76 189 378
77 189 171
78 189 203
79 188 151
80 187 468
81 187 171
82 187 110
83 186 592
84 186 410
85 186 843
86 186 219
87 185 89
88 185 46
89 184 56
90 183 905
91 183 455
92 183 890
93 183 976
94 182 798
95 182 668
96 181 575
97 180 120
98 180 106
99 180 257
100 180 120
101 179 656
102 179 867
103 179 60
104 178 401
105 178 439
106 177 654
107 177 95
108 177 298
109 177 231
110 177 562
111 177 933
112 176 666
113 176 157
114 176 110
115 176 294
116 176 653
117 175 680
118 175 422
119 175 16
120 175 227
121 175 838
122 175 388
123 175 524
124 175 622
125 174 612
126 173 486
127 173 473
128 173 683
129 173 700
130 173 419
131 172 896
132 172 450
133 172 495
134 172 156
135 172 656
136 171 719
137 171 186
138 171 531
139 171 594
140 169 275
141 169 44
142 169 826
143 169 747
144 168 633
145 168 70
146 168 431
147 167 825
148 167 541
149 167 879
150 167 785
151 167 106
152 167 178
153 166 590
154 166 508
155 166 320
156 166 114
157 165 987
158 165 1000
159 165 378
160 164 821
161 164 100
162 164 470
163 164 695
164 163 852
165 162 677
166 162 530
167 162 375
168 162 922
169 160 217
170 160 481
171 159 753
172 159 263
173 159 961
174 158 678
175 158 264
176 158 730
177 157 101
178 156 794
179 156 575
180 156 292
181 156 853
182 155 409
183 155 454
184 155 815
185 154 370
186 154 150
187 154 650
188 153 607
189 152 620
190 152 355
191 152 536
192 150 971
193 150 513
194 150 157
195 150 946
196 148 160
197 148 256
198 148 196
199 147 580
200 146 708
201 146 106
202 146 67
203 146 93
204 145 405
205 144 295
206 144 564
207 144 133
208 143 61
209 143 469
210 142 982
211 142 239
212 141 543
213 141 693
214 141 64
215 141 350
216 140 780
217 140 408
218 139 874
219 138 741
220 138 45
221 137 447
222 136 916
223 136 691
224 135 625
225 135 27
226 135 685
227 134 995
228 134 165
229 133 350
230 133 590
231 133 901
232 133 76
233 132 722
234 132 194
235 132 126
236 130 609
237 130 445
238 130 830
239 130 745
240 129 187
241 129 82
242 129 601
243 128 337
244 128 851
245 128 914
246 128 814
247 128 323
248 128 470
249 127 119
250 127 126
251 127 171
252 126 333
253 126 600
254 126 79
255 126 607
256 125 561
257 124 133
258 124 716
259 124 299
260 124 329
261 121 703
262 120 518
263 120 330
264 119 745
265 119 151
266 118 588
267 117 14
268 117 284
269 116 638
270 116 779
271 116 757
272 115 454
273 114 369
274 114 192
275 114 747
276 113 490
277 112 881
278 111 675
279 111 491
280 111 999
281 111 748
282 110 70
283 110 954
284 110 16
285 109 115
286 108 530
287 107 293
288 107 453
289 107 709
290 107 796
291 105 943
292 105 133
293 105 274
294 104 874
295 104 293
296 104 348
297 104 1000
298 104 380
299 104 755
300 103 325
301 103 230
302 103 911
303 102 210
304 102 228
305 102 723
306 102 881
307 101 335
308 101 749
309 101 133
310 101 668
311 101 283
312 100 970
313 100 57
314 99 604
315 99 934
316 99 566
317 99 700
318 99 910
319 99 583
320 98 787
321 98 583
322 98 642
323 97 217
324 97 263
325 97 64
326 96 376
327 96 622
328 95 912
329 95 289
330 94 210
331 94 87
332 94 27
333 93 865
334 93 269
335 93 489
336 93 20
337 92 455
338 92 945
339 92 991
340 91 224
341 91 174
342 90 860
343 90 733
344 88 521
345 88 516
346 88 868
347 87 861
348 87 881
349 87 463
350 86 408
351 86 474
352 86 243
353 85 9
354 85 996
355 85 155
356 85 912
357 84 347
358 83 754
359 83 467
360 83 582
361 82 386
362 82 380
363 82 866
364 82 164
365 81 662
366 80 103
367 80 530
368 79 987
369 79 509
370 79 639
371 79 456
372 79 235
373 78 489
374 78 803
375 77 755
376 77 320
377 77 108
378 76 450
379 76 375
380 76 635
381 75 181
382 75 879
383 75 818
384 75 801
385 74 661
386 74 310
387 73 912
388 73 48
389 73 702
390 73 130
391 69 380
392 69 554
393 68 958
394 68 262
395 68 144
396 68 49
397 67 293
398 67 853
399 66 889
400 66 745
401 66 166
402 66 169
403 66 163
404 65 208
405 64 985
406 64 534
407 64 498
408 63 571
409 63 924
410 63 476
411 62 622
412 62 997
413 62 651
414 61 916
415 61 720
416 61 920
417 60 803
418 59 649
419 58 411
420 58 987
421 57 564
422 57 575
423 57 816
424 56 473
425 56 466
426 55 947
427 55 446
428 55 137
429 55 719
430 54 179
431 54 380
432 53 483
433 53 442
434 53 502
435 53 499
436 53 906
437 52 527
438 52 157
439 52 56
440 52 305
441 51 125
442 51 810
443 51 54
444 51 730
445 50 224
446 50 369
447 49 848
448 49 523
449 49 402
450 49 765
451 49 694
452 49 200
453 48 620
454 48 250
455 48 485
456 47 927
457 47 837
458 46 629
459 46 372
460 44 307
461 44 940
462 44 171
463 43 468
464 43 381
465 43 971
466 43 653
467 42 409
468 42 836
469 41 946
470 41 209
471 41 45
472 41 550
473 41 775
474 40 287
475 39 673
476 39 902
477 39 504
478 38 29
479 38 776
480 38 894
481 38 409
482 38 162
483 37 617
484 36 548
485 36 361
486 36 702
487 36 938
488 35 760
489 34 63
490 34 307
491 34 188
492 34 412
493 33 476
494 33 795
495 32 906
496 32 569
497 31 516
498 31 628
499 31 817
500 30 47
